(set-option :print-success false)
(set-logic QF_UF)
(declare-sort x92 0)
(declare-sort x127 0)
(declare-fun x49 () x127)
(declare-fun x50 () x127)
(declare-fun x29 (x127 x127) x127)
(declare-fun x98 () x127)
(declare-fun x40 () x127)
(declare-fun x89 (x127 x127) x127)
(declare-fun x155 () x127)
(assert (or (or (or (and (not (= (x89 (x89 x40 x49) x40) x49)) (and (not (= x49 (x89 (x89 x155 x49) x155))) (and (not (= x49 (x89 (x89 x49 x49) x49))) (and (not (= (x89 (x89 x98 x49) x98) x49)) (not (= x49 (x89 (x89 x50 x49) x50))))))) (or (and (not (= (x89 (x89 x40 x98) x40) x98)) (and (and (and (not (= x98 (x89 (x89 x50 x98) x50))) (not (= (x89 (x89 x98 x98) x98) x98))) (not (= (x89 (x89 x49 x98) x49) x98))) (not (= x98 (x89 (x89 x155 x98) x155))))) (and (not (= x50 (x89 (x89 x40 x50) x40))) (and (and (not (= (x89 (x89 x49 x50) x49) x50)) (and (not (= x50 (x89 (x89 x50 x50) x50))) (not (= (x89 (x89 x98 x50) x98) x50)))) (not (= x50 (x89 (x89 x155 x50) x155))))))) (and (and (not (= (x89 (x89 x155 x155) x155) x155)) (and (not (= x155 (x89 (x89 x49 x155) x49))) (and (not (= (x89 (x89 x50 x155) x50) x155)) (not (= x155 (x89 (x89 x98 x155) x98)))))) (not (= x155 (x89 (x89 x40 x155) x40))))) (and (and (and (and (not (= x40 (x89 (x89 x98 x40) x98))) (not (= (x89 (x89 x50 x40) x50) x40))) (not (= x40 (x89 (x89 x49 x40) x49)))) (not (= x40 (x89 (x89 x155 x40) x155)))) (not (= x40 (x89 (x89 x40 x40) x40))))))
(assert (or (= (x89 x40 x40) x40) (or (= (x89 x155 x155) x155) (or (= (x89 x49 x49) x49) (or (= x98 (x89 x98 x98)) (= (x89 x50 x50) x50))))))
(assert (or (or (and (= (x89 x155 (x89 x155 x40)) x40) (and (and (= (x89 x155 (x89 x155 x49)) x49) (and (= (x89 x155 (x89 x155 x98)) x98) (= (x89 x155 (x89 x155 x50)) x50))) (= x155 (x89 x155 (x89 x155 x155))))) (or (or (and (and (and (= (x89 x50 (x89 x50 x49)) x49) (and (= x50 (x89 x50 (x89 x50 x50))) (= x98 (x89 x50 (x89 x50 x98))))) (= (x89 x50 (x89 x50 x155)) x155)) (= x40 (x89 x50 (x89 x50 x40)))) (and (and (and (and (= x50 (x89 x98 (x89 x98 x50))) (= (x89 x98 (x89 x98 x98)) x98)) (= x49 (x89 x98 (x89 x98 x49)))) (= (x89 x98 (x89 x98 x155)) x155)) (= x40 (x89 x98 (x89 x98 x40))))) (and (= (x89 x49 (x89 x49 x40)) x40) (and (= (x89 x49 (x89 x49 x155)) x155) (and (= (x89 x49 (x89 x49 x49)) x49) (and (= x50 (x89 x49 (x89 x49 x50))) (= x98 (x89 x49 (x89 x49 x98))))))))) (and (and (and (= (x89 x40 (x89 x40 x49)) x49) (and (= (x89 x40 (x89 x40 x98)) x98) (= x50 (x89 x40 (x89 x40 x50))))) (= x155 (x89 x40 (x89 x40 x155)))) (= (x89 x40 (x89 x40 x40)) x40))))
(assert (let ((x125 (x89 x155 x155)) (x81 (x89 x40 x40)) (x145 (x89 x49 x49)) (x96 (x89 x98 x98)) (x124 (x89 x50 x50))) (or (and (not (= x40 x81)) (and (not (= x125 x40)) (and (and (not (= x124 x40)) (not (= x40 x96))) (not (= x40 x145))))) (or (or (and (not (= x49 x81)) (and (and (and (not (= x49 x124)) (not (= x96 x49))) (not (= x49 x145))) (not (= x49 x125)))) (or (and (not (= x81 x98)) (and (and (not (= x145 x98)) (and (not (= x96 x98)) (not (= x98 x124)))) (not (= x125 x98)))) (and (and (and (not (= x50 x145)) (and (not (= x50 x124)) (not (= x96 x50)))) (not (= x125 x50))) (not (= x50 x81))))) (and (not (= x155 x81)) (and (not (= x125 x155)) (and (not (= x155 x145)) (and (not (= x124 x155)) (not (= x155 x96))))))))))
(assert (let ((x2 (x89 x98 x98)) (x124 (x89 x50 x50)) (x61 (x89 x50 x40)) (x51 (x89 x49 x49)) (x24 (x89 x49 x40)) (x53 (x89 x155 x49)) (x25 (x89 x50 x98)) (x66 (x89 x155 x40)) (x18 (x89 x98 x40)) (x48 (x89 x50 x49)) (x69 (x89 x40 x40)) (x34 (x89 x98 x155)) (x126 (x89 x49 x155)) (x26 (x89 x40 x49)) (x19 (x89 x40 x155)) (x88 (x89 x49 x98)) (x139 (x89 x98 x49)) (x79 (x89 x155 x98)) (x81 (x89 x40 x50)) (x145 (x89 x49 x50)) (x96 (x89 x98 x50)) (x73 (x89 x40 x98)) (x135 (x89 x155 x155)) (x125 (x89 x155 x50)) (x43 (x89 x50 x155))) (or (and (not (= x40 (x89 x69 x69))) (and (and (and (not (= (x89 x18 x18) x98)) (not (= (x89 x61 x61) x50))) (not (= (x89 x24 x24) x49))) (not (= (x89 x66 x66) x155)))) (or (and (and (and (and (not (= (x89 x43 x43) x50)) (not (= (x89 x34 x34) x98))) (not (= x49 (x89 x126 x126)))) (not (= (x89 x135 x135) x155))) (not (= x40 (x89 x19 x19)))) (or (or (and (and (not (= x155 (x89 x79 x79))) (and (not (= (x89 x88 x88) x49)) (and (not (= (x89 x25 x25) x50)) (not (= (x89 x2 x2) x98))))) (not (= x40 (x89 x73 x73)))) (and (and (not (= x155 (x89 x125 x125))) (and (not (= x49 (x89 x145 x145))) (and (not (= (x89 x124 x124) x50)) (not (= x98 (x89 x96 x96)))))) (not (= x40 (x89 x81 x81))))) (and (and (not (= x155 (x89 x53 x53))) (and (and (not (= x98 (x89 x139 x139))) (not (= x50 (x89 x48 x48)))) (not (= (x89 x51 x51) x49)))) (not (= x40 (x89 x26 x26)))))))))
(assert (not (and (= x50 (x89 x40 x40)) (and (and (= x155 (x89 x40 x49)) (and (and (and (and (= x40 (x89 x155 x155)) (and (= (x89 x155 x49) x50) (and (= x49 (x89 x155 x98)) (and (and (and (and (= (x89 x49 x49) x49) (and (and (and (and (and (and (and (= x50 (x89 x98 x50)) (and (and (and (and (= x40 (x89 x50 x50)) (= x50 (x89 x50 x98))) (= x98 (x89 x50 x49))) (= x49 (x89 x50 x155))) (= (x89 x50 x40) x155))) (= x98 (x89 x98 x98))) (= x40 (x89 x98 x49))) (= (x89 x98 x155) x155)) (= (x89 x98 x40) x49)) (= x98 (x89 x49 x50))) (= (x89 x49 x98) x155))) (= x50 (x89 x49 x155))) (= x40 (x89 x49 x40))) (= x155 (x89 x155 x50)))))) (= (x89 x155 x40) x98)) (= x49 (x89 x40 x50))) (= x40 (x89 x40 x98)))) (= x98 (x89 x40 x155))))))
(assert (let ((x18 (x89 x98 x40)) (x105 (x89 x40 x98)) (x15 (x89 x40 x155)) (x93 (x89 x40 x40)) (x81 (x89 x50 x155)) (x25 (x89 x50 x40)) (x84 (x89 x49 x49)) (x79 (x89 x49 x50)) (x145 (x89 x50 x98)) (x19 (x89 x98 x49)) (x96 (x89 x50 x50)) (x61 (x89 x98 x155)) (x125 (x89 x50 x49)) (x73 (x89 x155 x50)) (x55 (x89 x155 x155)) (x70 (x89 x155 x40)) (x58 (x89 x155 x49)) (x147 (x89 x40 x49)) (x110 (x89 x49 x40)) (x88 (x89 x98 x50)) (x48 (x89 x40 x50)) (x131 (x89 x155 x98)) (x135 (x89 x98 x98)) (x35 (x89 x49 x155)) (x69 (x89 x49 x98))) (let ((x4 (= x155 x135)) (x44 (= x40 x35)) (x42 (= x155 x84)) (x65 (= x40 x145)) (x43 (= x145 x50)) (x140 (= x48 x40)) (x112 (= x18 x49)) (x120 (= x50 x19)) (x144 (= x79 x49)) (x142 (= x131 x50)) (x71 (= x18 x155)) (x116 (= x98 x93)) (x20 (= x50 x70)) (x95 (= x110 x49)) (x117 (= x73 x98)) (x108 (= x155 x19)) (x62 (= x155 x35)) (x103 (= x155 x147)) (x102 (= x40 x55)) (x121 (= x49 x70)) (x152 (= x98 x55)) (x138 (= x98 x84)) (x52 (= x40 x61)) (x78 (= x155 x110)) (x154 (= x19 x98)) (x7 (= x35 x98)) (x87 (= x98 x15)) (x60 (= x98 x18)) (x123 (= x61 x49)) (x66 (= x135 x98)) (x129 (= x81 x50)) (x33 (= x110 x50)) (x9 (= x49 x135)) (x32 (= x61 x155)) (x28 (= x131 x155)) (x134 (= x25 x155)) (x143 (= x69 x40)) (x153 (= x50 x58)) (x85 (= x125 x50)) (x21 (= x98 x147)) (x56 (= x35 x50)) (x16 (= x70 x98)) (x124 (= x50 x96)) (x54 (= x105 x98)) (x122 (= x70 x40)) (x39 (= x25 x98)) (x91 (= x50 x93)) (x159 (= x50 x79)) (x106 (= x155 x69)) (x151 (= x105 x40)) (x11 (= x19 x40)) (x148 (= x98 x110)) (x8 (= x49 x125)) (x137 (= x84 x40)) (x94 (= x49 x58)) (x37 (= x55 x49)) (x14 (= x155 x55)) (x26 (= x88 x50)) (x67 (= x155 x81)) (x128 (= x35 x49)) (x34 (= x135 x50)) (x1 (= x147 x50)) (x41 (= x19 x49)) (x146 (= x48 x98)) (x150 (= x69 x50)) (x149 (= x145 x49)) (x6 (= x50 x55)) (x30 (= x131 x49)) (x139 (= x96 x49)) (x156 (= x18 x40)) (x99 (= x125 x40)) (x111 (= x155 x93)) (x51 (= x155 x96)) (x17 (= x81 x49)) (x27 (= x50 x48)) (x82 (= x73 x155)) (x109 (= x49 x105)) (x38 (= x15 x50)) (x24 (= x98 x145)) (x83 (= x50 x61)) (x75 (= x131 x98)) (x72 (= x155 x58)) (x3 (= x49 x88)) (x157 (= x49 x73)) (x132 (= x105 x155)) (x12 (= x58 x40)) (x53 (= x40 x96)) (x100 (= x50 x105)) (x113 (= x40 x73)) (x36 (= x15 x49)) (x59 (= x40 x110)) (x22 (= x155 x48)) (x47 (= x98 x69)) (x107 (= x49 x25)) (x141 (= x79 x98)) (x45 (= x84 x50)) (x119 (= x25 x40)) (x13 (= x125 x98)) (x10 (= x79 x155)) (x2 (= x98 x96)) (x136 (= x18 x50)) (x46 (= x125 x155)) (x64 (= x40 x88)) (x130 (= x50 x25)) (x57 (= x84 x49)) (x104 (= x40 x131)) (x158 (= x98 x58)) (x76 (= x81 x98)) (x63 (= x15 x155)) (x80 (= x40 x93)) (x31 (= x40 x15)) (x74 (= x93 x49)) (x133 (= x155 x88)) (x101 (= x49 x48)) (x97 (= x49 x147)) (x23 (= x155 x70)) (x126 (= x98 x88)) (x115 (= x69 x49)) (x5 (= x135 x40)) (x77 (= x40 x147)) (x86 (= x79 x40)) (x118 (= x50 x73)) (x68 (= x81 x40)) (x114 (= x61 x98)) (x90 (= x145 x155))) (and (and (and (and (and (and (and (or (or (or x10 (or x133 x51)) x82) x22) (or (or (or x46 (or x90 x51)) x67) x134)) (and (and (or (or x17 (or (or x149 x139) x8)) x107) (or (or x157 (or (or x139 x3) x144)) x101)) (and (and (or x39 (or x76 (or (or x2 x24) x13))) (or (or (or (or x2 x126) x141) x117) x146)) (and (or (or x118 (or x159 (or x26 x124))) x27) (or (or x129 (or (or x43 x124) x85)) x130))))) (and (or (or (or x99 (or x53 x65)) x68) x119) (or (or x113 (or (or x64 x53) x86)) x140))) (and (and (or (or x52 (or x11 (or x5 x64))) x156) (or (or (or (or x65 x5) x143) x104) x151)) (and (and (and (or (or x30 (or (or x9 x149) x115)) x109) (or (or (or (or x9 x3) x41) x123) x112)) (and (and (or (or (or x150 (or x43 x34)) x142) x100) (or (or (or x120 (or x26 x34)) x83) x136)) (and (or x60 (or x114 (or x154 (or x66 x126)))) (or x54 (or (or x47 (or x66 x24)) x75))))) (and (or x71 (or x32 (or (or x133 x4) x108))) (or x132 (or (or (or x4 x90) x106) x28)))))) (and (and (or (or (or x137 (or x11 x99)) x12) x77) (or (or x44 (or (or x143 x86) x137)) x59)) (and (and (and (and (or (or x158 (or (or x13 x154) x138)) x21) (or (or (or x138 (or x141 x47)) x7) x148)) (and (or x1 (or (or (or x85 x120) x45) x153)) (or (or (or (or x150 x159) x45) x56) x33))) (and (or x95 (or (or (or x115 x144) x57) x128)) (or (or x94 (or (or x8 x41) x57)) x97))) (and (or (or (or (or x46 x108) x42) x72) x103) (or (or (or x42 (or x10 x106)) x62) x78))))) (and (and (or (or (or x12 (or x104 x113)) x102) x122) (or x31 (or x102 (or (or x68 x52) x44)))) (and (and (and (or x121 (or x37 (or x94 (or x30 x157)))) (or (or (or x128 (or x17 x123)) x37) x36)) (and (and (or x16 (or x152 (or (or x117 x75) x158))) (or (or x152 (or x7 (or x114 x76))) x87)) (and (or x20 (or x6 (or x153 (or x118 x142)))) (or x38 (or (or x56 (or x129 x83)) x6))))) (and (or (or (or x72 (or x28 x82)) x14) x23) (or x63 (or x14 (or x62 (or x67 x32)))))))) (and (and (or x80 (or (or (or x156 x119) x59) x122)) (or x80 (or x31 (or (or x140 x151) x77)))) (and (and (or (or (or (or x22 x132) x103) x63) x111) (or x111 (or x23 (or (or x134 x71) x78)))) (and (and (or x74 (or (or (or x112 x107) x95) x121)) (or (or (or (or x109 x101) x97) x36) x74)) (and (and (or x91 (or (or (or x130 x136) x33) x20)) (or x91 (or (or x1 (or x100 x27)) x38))) (and (or (or (or (or x60 x39) x148) x16) x116) (or (or x87 (or x21 (or x146 x54))) x116))))))))))
(assert (let ((x139 (x89 x49 x98)) (x126 (x89 x155 x49)) (x88 (x89 x98 x49)) (x34 (x89 x155 x98)) (x19 (x89 x155 x40)) (x81 (x89 x50 x40)) (x73 (x89 x98 x40)) (x51 (x89 x49 x49)) (x61 (x89 x40 x50)) (x48 (x89 x49 x50)) (x125 (x89 x50 x155)) (x53 (x89 x49 x155)) (x135 (x89 x155 x155)) (x18 (x89 x40 x98)) (x43 (x89 x155 x50)) (x66 (x89 x40 x155)) (x26 (x89 x49 x40)) (x124 (x89 x50 x50)) (x25 (x89 x98 x50)) (x79 (x89 x98 x155)) (x24 (x89 x40 x49)) (x145 (x89 x50 x49)) (x2 (x89 x98 x98)) (x96 (x89 x50 x98)) (x69 (x89 x40 x40))) (and (and (and (and (and (and (and (and (or (or (or (= x124 x49) (or (= x124 x98) (= x124 x50))) (= x155 x124)) (= x124 x40)) (or (= x96 x40) (or (= x155 x96) (or (= x96 x49) (or (= x96 x50) (= x98 x96)))))) (or (or (or (= x145 x49) (or (= x145 x98) (= x50 x145))) (= x155 x145)) (= x40 x145))) (or (or (or (= x49 x125) (or (= x125 x50) (= x125 x98))) (= x125 x155)) (= x125 x40))) (or (= x81 x40) (or (or (= x49 x81) (or (= x98 x81) (= x50 x81))) (= x81 x155)))) (and (or (= x73 x40) (or (= x155 x73) (or (or (= x73 x98) (= x73 x50)) (= x49 x73)))) (and (and (or (or (= x155 x88) (or (= x49 x88) (or (= x88 x98) (= x50 x88)))) (= x40 x88)) (and (or (= x40 x2) (or (= x155 x2) (or (= x49 x2) (or (= x2 x50) (= x2 x98))))) (or (= x25 x40) (or (= x25 x155) (or (= x25 x49) (or (= x25 x50) (= x98 x25))))))) (or (or (= x155 x79) (or (= x49 x79) (or (= x98 x79) (= x50 x79)))) (= x79 x40))))) (and (or (or (or (= x49 x26) (or (= x50 x26) (= x26 x98))) (= x26 x155)) (= x40 x26)) (and (or (= x53 x40) (or (= x155 x53) (or (= x53 x49) (or (= x98 x53) (= x50 x53))))) (and (or (or (= x155 x51) (or (or (= x51 x98) (= x50 x51)) (= x51 x49))) (= x51 x40)) (and (or (or (or (or (= x139 x98) (= x139 x50)) (= x49 x139)) (= x139 x155)) (= x40 x139)) (or (= x40 x48) (or (or (= x48 x49) (or (= x98 x48) (= x48 x50))) (= x155 x48)))))))) (and (and (and (and (or (or (= x155 x34) (or (= x49 x34) (or (= x34 x50) (= x98 x34)))) (= x34 x40)) (or (or (= x155 x43) (or (= x43 x49) (or (= x43 x50) (= x43 x98)))) (= x40 x43))) (or (= x126 x40) (or (= x126 x155) (or (or (= x126 x98) (= x50 x126)) (= x49 x126))))) (or (= x135 x40) (or (or (or (= x135 x98) (= x135 x50)) (= x49 x135)) (= x135 x155)))) (or (= x19 x40) (or (or (= x49 x19) (or (= x19 x50) (= x98 x19))) (= x155 x19))))) (and (and (and (or (or (or (= x49 x24) (or (= x98 x24) (= x50 x24))) (= x155 x24)) (= x40 x24)) (and (or (or (= x155 x61) (or (= x61 x49) (or (= x61 x50) (= x61 x98)))) (= x40 x61)) (or (or (= x155 x18) (or (or (= x18 x50) (= x98 x18)) (= x49 x18))) (= x40 x18)))) (or (= x66 x40) (or (= x155 x66) (or (= x66 x49) (or (= x98 x66) (= x50 x66)))))) (or (= x69 x40) (or (or (or (= x98 x69) (= x69 x50)) (= x69 x49)) (= x155 x69)))))))
(assert (let ((x145 (x89 x98 x98)) (x25 (x89 x40 x40)) (x96 (x89 x50 x50)) (x125 (x89 x49 x49)) (x81 (x89 x155 x155))) (let ((x88 (= x145 x98)) (x51 (= x49 x125)) (x26 (= x25 x40)) (x124 (= x50 x96)) (x53 (= x155 x81))) (let ((x73 (or (or (= x49 x81) (or x51 (or (= x49 x145) (= x49 x96)))) (= x25 x49))) (x2 (or (= x25 x50) (or (or (= x50 x125) (or (= x50 x145) x124)) (= x50 x81)))) (x139 (or x26 (or (= x81 x40) (or (or (= x96 x40) (= x40 x145)) (= x125 x40))))) (x48 (or (= x25 x155) (or x53 (or (= x155 x125) (or (= x155 x145) (= x96 x155)))))) (x79 (or (or (or (or (= x96 x98) x88) (= x125 x98)) (= x81 x98)) (= x25 x98)))) (and (and (and (and (and (and (or (not (= (x89 x98 x155) x98)) x48) (and (and (or x79 (not x88)) (or (not (= (x89 x98 x50) x98)) x2)) (or (not (= (x89 x98 x49) x98)) x73))) (or x139 (not (= x98 (x89 x98 x40))))) (and (or (not (= x50 (x89 x50 x40))) x139) (and (or (not (= (x89 x50 x155) x50)) x48) (and (and (or (not (= (x89 x50 x98) x50)) x79) (or x2 (not x124))) (or x73 (not (= (x89 x50 x49) x50))))))) (and (and (or (not (= (x89 x49 x155) x49)) x48) (and (and (or x2 (not (= (x89 x49 x50) x49))) (or x79 (not (= (x89 x49 x98) x49)))) (or x73 (not x51)))) (or (not (= (x89 x49 x40) x49)) x139))) (and (or (not (= x155 (x89 x155 x40))) x139) (and (and (or x73 (not (= x155 (x89 x155 x49)))) (and (or (not (= x155 (x89 x155 x50))) x2) (or (not (= x155 (x89 x155 x98))) x79))) (or (not x53) x48)))) (and (and (or x48 (not (= x40 (x89 x40 x155)))) (and (and (or (not (= x40 (x89 x40 x98))) x79) (or (not (= x40 (x89 x40 x50))) x2)) (or x73 (not (= x40 (x89 x40 x49)))))) (or x139 (not x26))))))))
(assert (and (and (= (x89 x155 x98) x49) (and (= (x89 x155 x49) x50) (= (x89 x40 x155) x98))) (= x40 (x89 x155 x155))))
(assert (let ((x26 (x89 x155 x50)) (x131 (x89 x40 x49)) (x124 (x89 x50 x50)) (x51 (x89 x98 x49)) (x88 (x89 x50 x98)) (x48 (x89 x50 x49)) (x135 (x89 x155 x49)) (x139 (x89 x49 x98)) (x19 (x89 x49 x155)) (x18 (x89 x40 x50)) (x149 (x89 x155 x40)) (x145 (x89 x49 x49)) (x96 (x89 x98 x98)) (x105 (x89 x49 x40)) (x81 (x89 x40 x40)) (x69 (x89 x98 x40)) (x43 (x89 x50 x155)) (x73 (x89 x49 x50)) (x66 (x89 x40 x98)) (x24 (x89 x50 x40)) (x34 (x89 x155 x98)) (x3 (x89 x40 x155)) (x126 (x89 x98 x155)) (x125 (x89 x155 x155)) (x2 (x89 x98 x50))) (let ((x9 (= x40 x81)) (x53 (= x145 x49)) (x61 (= x125 x155)) (x25 (= x124 x50)) (x79 (= x98 x96))) (and (and (and (and (and (or (= x50 (x89 x124 x50)) (not (= x50 (x89 x50 x124)))) (or (not (= (x89 x98 x96) x98)) (= (x89 x96 x98) x98))) (or (not (= x49 (x89 x49 x145))) (= x49 (x89 x145 x49)))) (or (not (= x155 (x89 x155 x125))) (= x155 (x89 x125 x155)))) (or (not (= x40 (x89 x40 x81))) (= x40 (x89 x81 x40)))) (or (or (or (and (and (= x3 x155) (not (= x40 x125))) (= x155 x149)) (or (and (and (not x61) x61) x61) (or (and (= x135 x155) (and (not (= x125 x49)) (= x19 x155))) (or (and (and (= x43 x155) (not (= x125 x50))) (= x155 x26)) (and (= x155 x34) (and (= x155 x126) (not (= x98 x125)))))))) (or (or (or (or (and (and (= x34 x98) (not (= x96 x155))) (= x126 x98)) (or (or (and (and (= x88 x98) (not (= x50 x96))) (= x2 x98)) (and x79 (and (not x79) x79))) (and (= x51 x98) (and (= x98 x139) (not (= x49 x96)))))) (and (= x98 x69) (and (not (= x40 x96)) (= x66 x98)))) (or (and (= x24 x50) (and (not (= x40 x124)) (= x18 x50))) (or (or (and (= x48 x50) (and (not (= x124 x49)) (= x50 x73))) (or (and (= x50 x88) (and (= x2 x50) (not (= x124 x98)))) (and (and x25 (not x25)) x25))) (and (= x50 x43) (and (= x50 x26) (not (= x155 x124))))))) (or (and (= x49 x105) (and (= x49 x131) (not (= x40 x145)))) (or (or (and x53 (and (not x53) x53)) (or (and (= x73 x49) (and (not (= x50 x145)) (= x49 x48))) (and (= x139 x49) (and (= x49 x51) (not (= x98 x145)))))) (and (= x49 x19) (and (not (= x155 x145)) (= x135 x49))))))) (or (or (or (and (= x40 x131) (and (not (= x81 x49)) (= x105 x40))) (or (and (and (= x40 x69) (not (= x98 x81))) (= x66 x40)) (and (and (= x40 x24) (not (= x50 x81))) (= x18 x40)))) (and (and (not (= x155 x81)) (= x40 x149)) (= x40 x3))) (and x9 (and (not x9) x9))))))))
(assert (and (and (and (and (not (= x98 x40)) (and (and (and (and (not (= x155 x50)) (and (not (= x50 x49)) (not (= x98 x50)))) (not (= x50 x40))) (not (= x49 x98))) (not (= x98 x155)))) (not (= x49 x155))) (not (= x40 x49))) (not (= x40 x155))))
(assert (let ((x150 (x89 x98 x98)) (x47 (x89 x155 x98)) (x115 (x89 x155 x49)) (x3 (x89 x50 x98)) (x131 (x89 x50 x50)) (x11 (x89 x40 x155)) (x133 (x89 x49 x50)) (x141 (x89 x98 x155)) (x144 (x89 x49 x155)) (x65 (x89 x40 x50)) (x8 (x89 x49 x40)) (x84 (x89 x98 x40)) (x41 (x89 x40 x49)) (x58 (x89 x49 x49)) (x117 (x89 x40 x40)) (x99 (x89 x155 x40)) (x9 (x89 x50 x49)) (x120 (x89 x98 x49)) (x86 (x89 x155 x155)) (x45 (x89 x49 x98)) (x90 (x89 x50 x155)) (x149 (x89 x98 x50)) (x35 (x89 x40 x98)) (x64 (x89 x50 x40)) (x4 (x89 x155 x50))) (let ((x81 (not (= x50 x133))) (x51 (not (= x50 x141))) (x140 (not (= x65 x40))) (x138 (not (= x98 x120))) (x5 (not (= x149 x98))) (x62 (not (= x49 x41))) (x96 (not (= x149 x50))) (x24 (not (= x50 x11))) (x53 (not (= x115 x50))) (x33 (not (= x90 x155))) (x85 (not (= x150 x98))) (x12 (not (= x49 x117))) (x148 (not (= x41 x155))) (x118 (not (= x98 x64))) (x61 (not (= x41 x50))) (x42 (not (= x144 x98))) (x57 (not (= x98 x4))) (x18 (not (= x8 x50))) (x15 (not (= x120 x49))) (x105 (not (= x98 x131))) (x72 (not (= x49 x64))) (x128 (not (= x49 x115))) (x100 (not (= x9 x155))) (x102 (not (= x150 x155))) (x59 (not (= x11 x40))) (x139 (not (= x47 x50))) (x143 (not (= x98 x86))) (x114 (not (= x133 x49))) (x157 (not (= x58 x49))) (x146 (not (= x115 x155))) (x97 (not (= x131 x40))) (x88 (not (= x120 x50))) (x124 (not (= x131 x50))) (x34 (not (= x50 x65))) (x17 (not (= x47 x49))) (x32 (not (= x49 x84))) (x14 (not (= x49 x8))) (x108 (not (= x98 x115))) (x158 (not (= x131 x49))) (x112 (not (= x150 x40))) (x55 (not (= x149 x49))) (x68 (not (= x131 x155))) (x48 (not (= x50 x90))) (x94 (not (= x90 x49))) (x39 (not (= x155 x35))) (x103 (not (= x4 x40))) (x79 (not (= x58 x50))) (x60 (not (= x155 x84))) (x142 (not (= x35 x98))) (x75 (not (= x117 x98))) (x70 (not (= x49 x3))) (x101 (not (= x99 x155))) (x151 (not (= x64 x40))) (x38 (not (= x120 x155))) (x69 (not (= x50 x117))) (x104 (not (= x99 x49))) (x121 (not (= x9 x40))) (x82 (not (= x49 x86))) (x106 (not (= x47 x98))) (x152 (not (= x49 x45))) (x137 (not (= x98 x65))) (x46 (not (= x98 x141))) (x1 (not (= x155 x45))) (x36 (not (= x40 x149))) (x28 (not (= x49 x65))) (x154 (not (= x45 x98))) (x135 (not (= x50 x35))) (x63 (not (= x90 x40))) (x43 (not (= x50 x86))) (x76 (not (= x49 x150))) (x31 (not (= x40 x84))) (x130 (not (= x155 x58))) (x22 (not (= x40 x120))) (x74 (not (= x45 x40))) (x134 (not (= x47 x40))) (x80 (not (= x40 x117))) (x107 (not (= x40 x3))) (x109 (not (= x155 x117))) (x25 (not (= x9 x50))) (x116 (not (= x155 x11))) (x136 (not (= x4 x155))) (x54 (not (= x155 x144))) (x77 (not (= x35 x40))) (x113 (not (= x11 x49))) (x95 (not (= x40 x133))) (x87 (not (= x65 x155))) (x83 (not (= x98 x8))) (x91 (not (= x141 x155))) (x156 (not (= x8 x40))) (x147 (not (= x98 x58))) (x44 (not (= x155 x3))) (x153 (not (= x98 x84))) (x126 (not (= x50 x64))) (x7 (not (= x9 x49))) (x67 (not (= x49 x35))) (x13 (not (= x9 x98))) (x10 (not (= x90 x98))) (x21 (not (= x86 x155))) (x119 (not (= x40 x41))) (x26 (not (= x144 x50))) (x56 (not (= x11 x98))) (x37 (not (= x49 x144))) (x110 (not (= x133 x98))) (x30 (not (= x49 x4))) (x78 (not (= x115 x40))) (x93 (not (= x64 x155))) (x73 (not (= x50 x4))) (x66 (not (= x50 x99))) (x20 (not (= x155 x47))) (x132 (not (= x40 x58))) (x129 (not (= x98 x41))) (x71 (not (= x141 x40))) (x19 (not (= x50 x84))) (x159 (not (= x98 x3))) (x123 (not (= x141 x49))) (x145 (not (= x50 x3))) (x16 (not (= x8 x155))) (x6 (not (= x98 x99))) (x2 (not (= x50 x45))) (x125 (not (= x50 x150))) (x111 (not (= x40 x86))) (x122 (not (= x99 x40))) (x27 (not (= x155 x133))) (x23 (not (= x144 x40))) (x52 (not (= x155 x149)))) (or (and (and (and (or x59 x122) (and (or x119 x156) (and (or x140 x151) (or x31 x77)))) (or x80 x80)) (and (and (and (and (or x23 x78) (and (and (or x95 x121) (or x74 x22)) (or x132 x132))) (or x119 x156)) (and (and (or x140 x151) (and (and (and (or x97 x97) (or x107 x36)) (or x95 x121)) (or x103 x63))) (and (or x31 x77) (and (or x71 x134) (and (and (or x36 x107) (or x112 x112)) (or x22 x74)))))) (and (or x59 x122) (and (or x111 x111) (and (and (or x71 x134) (or x63 x103)) (or x78 x23)))))) (or (or (or (and (and (and (or x66 x24) (and (and (or x53 x26) (and (or x139 x51) (or x48 x73))) (or x43 x43))) (and (and (and (or x126 x34) (and (and (and (or x124 x124) (or x96 x145)) (or x81 x25)) (or x73 x48))) (and (and (and (or x2 x88) (and (or x125 x125) (or x145 x96))) (or x51 x139)) (or x135 x19))) (and (and (or x53 x26) (and (and (or x2 x88) (or x81 x25)) (or x79 x79))) (or x18 x61)))) (and (or x69 x69) (and (and (or x18 x61) (and (or x34 x126) (or x135 x19))) (or x66 x24)))) (and (and (and (and (and (and (or x57 x10) (and (and (or x105 x105) (or x5 x159)) (or x13 x110))) (or x118 x137)) (and (and (and (and (or x85 x85) (or x159 x5)) (or x154 x138)) (or x46 x106)) (or x142 x153))) (and (or x129 x83) (and (and (or x147 x147) (and (or x110 x13) (or x154 x138))) (or x108 x42)))) (and (or x6 x56) (and (and (or x108 x42) (and (or x46 x106) (or x57 x10))) (or x143 x143)))) (and (or x75 x75) (and (and (or x129 x83) (and (or x142 x153) (or x137 x118))) (or x6 x56))))) (and (and (and (or x113 x104) (and (or x14 x62) (and (or x72 x28) (or x67 x32)))) (or x12 x12)) (and (and (and (or x14 x62) (and (and (and (or x15 x152) (or x114 x7)) (or x157 x157)) (or x37 x128))) (and (and (or x28 x72) (and (and (or x7 x114) (and (or x55 x70) (or x158 x158))) (or x94 x30))) (and (or x32 x67) (and (or x123 x17) (and (and (or x76 x76) (or x55 x70)) (or x15 x152)))))) (and (or x113 x104) (and (and (and (or x94 x30) (or x123 x17)) (or x128 x37)) (or x82 x82)))))) (and (and (and (or x116 x101) (and (or x21 x21) (and (or x54 x146) (and (or x91 x20) (or x33 x136))))) (and (and (and (and (or x20 x91) (and (and (or x52 x44) (or x102 x102)) (or x38 x1))) (or x60 x39)) (and (and (or x136 x33) (and (and (or x44 x52) (or x68 x68)) (or x27 x100))) (or x87 x93))) (and (or x148 x16) (and (or x146 x54) (and (or x130 x130) (and (or x100 x27) (or x1 x38))))))) (and (and (and (or x16 x148) (and (or x60 x39) (or x93 x87))) (or x101 x116)) (or x109 x109))))))))
(assert (or (and (= x40 (x89 (x89 x40 x40) x40)) (and (and (and (= (x89 (x89 x98 x40) x40) x98) (= x50 (x89 (x89 x50 x40) x40))) (= x49 (x89 (x89 x49 x40) x40))) (= x155 (x89 (x89 x155 x40) x40)))) (or (and (= (x89 (x89 x40 x155) x155) x40) (and (= (x89 (x89 x155 x155) x155) x155) (and (= x49 (x89 (x89 x49 x155) x155)) (and (= x50 (x89 (x89 x50 x155) x155)) (= (x89 (x89 x98 x155) x155) x98))))) (or (and (= (x89 (x89 x40 x49) x49) x40) (and (and (and (= x50 (x89 (x89 x50 x49) x49)) (= x98 (x89 (x89 x98 x49) x49))) (= x49 (x89 (x89 x49 x49) x49))) (= x155 (x89 (x89 x155 x49) x49)))) (or (and (and (and (= x49 (x89 (x89 x49 x50) x50)) (and (= x98 (x89 (x89 x98 x50) x50)) (= (x89 (x89 x50 x50) x50) x50))) (= x155 (x89 (x89 x155 x50) x50))) (= (x89 (x89 x40 x50) x50) x40)) (and (= (x89 (x89 x40 x98) x98) x40) (and (and (= x49 (x89 (x89 x49 x98) x98)) (and (= x98 (x89 (x89 x98 x98) x98)) (= (x89 (x89 x50 x98) x98) x50))) (= (x89 (x89 x155 x98) x98) x155))))))))
(assert (or (and (not (= x40 (x89 (x89 x40 x40) x40))) (and (and (and (not (= (x89 (x89 x40 x50) x40) x50)) (not (= x98 (x89 (x89 x40 x98) x40)))) (not (= x49 (x89 (x89 x40 x49) x40)))) (not (= x155 (x89 (x89 x40 x155) x40))))) (or (and (and (not (= (x89 (x89 x155 x155) x155) x155)) (and (and (not (= (x89 (x89 x155 x50) x155) x50)) (not (= x98 (x89 (x89 x155 x98) x155)))) (not (= x49 (x89 (x89 x155 x49) x155))))) (not (= (x89 (x89 x155 x40) x155) x40))) (or (or (and (and (not (= x155 (x89 (x89 x98 x155) x98))) (and (not (= (x89 (x89 x98 x49) x98) x49)) (and (not (= x98 (x89 (x89 x98 x98) x98))) (not (= (x89 (x89 x98 x50) x98) x50))))) (not (= x40 (x89 (x89 x98 x40) x98)))) (and (not (= x40 (x89 (x89 x50 x40) x50))) (and (and (and (not (= (x89 (x89 x50 x50) x50) x50)) (not (= x98 (x89 (x89 x50 x98) x50)))) (not (= x49 (x89 (x89 x50 x49) x50)))) (not (= (x89 (x89 x50 x155) x50) x155))))) (and (not (= x40 (x89 (x89 x49 x40) x49))) (and (not (= x155 (x89 (x89 x49 x155) x49))) (and (not (= (x89 (x89 x49 x49) x49) x49)) (and (not (= (x89 (x89 x49 x50) x49) x50)) (not (= x98 (x89 (x89 x49 x98) x49)))))))))))
(assert (let ((x26 (x89 x40 x49)) (x2 (x89 x98 x98)) (x139 (x89 x98 x49)) (x73 (x89 x40 x98)) (x88 (x89 x49 x98)) (x125 (x89 x155 x50)) (x24 (x89 x49 x40)) (x61 (x89 x50 x40)) (x19 (x89 x40 x155)) (x145 (x89 x49 x50)) (x124 (x89 x50 x50)) (x66 (x89 x155 x40)) (x51 (x89 x49 x49)) (x96 (x89 x98 x50)) (x53 (x89 x155 x49)) (x135 (x89 x155 x155)) (x34 (x89 x98 x155)) (x25 (x89 x50 x98)) (x18 (x89 x98 x40)) (x43 (x89 x50 x155)) (x79 (x89 x155 x98)) (x126 (x89 x49 x155)) (x69 (x89 x40 x40)) (x48 (x89 x50 x49)) (x81 (x89 x40 x50))) (and (and (and (not (= x69 x66)) (and (not (= x69 x24)) (and (and (and (and (not (= x18 x24)) (and (not (= x69 x61)) (and (and (not (= x18 x61)) (not (= x24 x61))) (not (= x66 x61))))) (not (= x66 x18))) (not (= x18 x69))) (not (= x24 x66))))) (and (and (and (and (not (= x79 x73)) (and (not (= x73 x88)) (and (not (= x88 x79)) (and (not (= x73 x2)) (and (and (not (= x2 x88)) (and (not (= x73 x25)) (and (and (not (= x88 x25)) (not (= x2 x25))) (not (= x25 x79))))) (not (= x2 x79))))))) (and (not (= x81 x125)) (and (and (not (= x125 x145)) (and (not (= x81 x96)) (and (not (= x96 x125)) (and (not (= x96 x145)) (and (and (and (not (= x145 x124)) (not (= x96 x124))) (not (= x124 x125))) (not (= x124 x81))))))) (not (= x145 x81))))) (and (and (and (not (= x51 x53)) (and (not (= x139 x26)) (and (not (= x53 x139)) (and (not (= x139 x51)) (and (and (not (= x53 x48)) (and (not (= x51 x48)) (not (= x48 x139)))) (not (= x26 x48))))))) (not (= x51 x26))) (not (= x26 x53)))) (and (and (and (not (= x126 x135)) (and (and (not (= x34 x135)) (and (and (and (and (not (= x43 x126)) (not (= x43 x34))) (not (= x43 x135))) (not (= x43 x19))) (not (= x126 x34)))) (not (= x34 x19)))) (not (= x19 x126))) (not (= x19 x135))))) (and (and (and (and (and (and (not (= x51 x126)) (and (and (not (= x126 x88)) (and (and (and (and (not (= x145 x88)) (not (= x51 x145))) (not (= x126 x145))) (not (= x24 x145))) (not (= x51 x88)))) (not (= x24 x88)))) (not (= x24 x51))) (not (= x24 x126))) (and (and (and (not (= x48 x61)) (and (not (= x48 x43)) (and (not (= x61 x25)) (and (not (= x43 x25)) (and (and (not (= x124 x61)) (and (and (not (= x124 x25)) (not (= x48 x124))) (not (= x124 x43)))) (not (= x25 x48))))))) (not (= x43 x61))) (and (not (= x18 x34)) (and (not (= x139 x18)) (and (not (= x139 x34)) (and (not (= x18 x2)) (and (and (and (and (and (not (= x96 x139)) (not (= x2 x96))) (not (= x34 x96))) (not (= x18 x96))) (not (= x2 x139))) (not (= x2 x34))))))))) (and (not (= x135 x66)) (and (not (= x53 x66)) (and (not (= x53 x135)) (and (and (not (= x79 x135)) (and (not (= x79 x53)) (and (not (= x125 x66)) (and (and (not (= x125 x53)) (not (= x79 x125))) (not (= x125 x135)))))) (not (= x79 x66))))))) (and (not (= x19 x69)) (and (and (not (= x19 x26)) (and (not (= x73 x69)) (and (and (not (= x26 x73)) (and (not (= x69 x81)) (and (and (not (= x81 x26)) (not (= x73 x81))) (not (= x19 x81))))) (not (= x19 x73))))) (not (= x69 x26))))))))
(assert (or (or (or (and (not (= (x89 x40 (x89 x49 x40)) x40)) (and (not (= x155 (x89 x155 (x89 x49 x155)))) (and (and (not (= (x89 x98 (x89 x49 x98)) x98)) (not (= (x89 x50 (x89 x49 x50)) x50))) (not (= x49 (x89 x49 (x89 x49 x49))))))) (or (and (and (and (and (not (= x50 (x89 x50 (x89 x98 x50)))) (not (= (x89 x98 (x89 x98 x98)) x98))) (not (= x49 (x89 x49 (x89 x98 x49))))) (not (= x155 (x89 x155 (x89 x98 x155))))) (not (= x40 (x89 x40 (x89 x98 x40))))) (and (not (= (x89 x40 (x89 x50 x40)) x40)) (and (not (= x155 (x89 x155 (x89 x50 x155)))) (and (not (= (x89 x49 (x89 x50 x49)) x49)) (and (not (= x50 (x89 x50 (x89 x50 x50)))) (not (= (x89 x98 (x89 x50 x98)) x98)))))))) (and (not (= x40 (x89 x40 (x89 x155 x40)))) (and (not (= (x89 x155 (x89 x155 x155)) x155)) (and (and (not (= x50 (x89 x50 (x89 x155 x50)))) (not (= x98 (x89 x98 (x89 x155 x98))))) (not (= x49 (x89 x49 (x89 x155 x49)))))))) (and (and (and (and (not (= (x89 x98 (x89 x40 x98)) x98)) (not (= (x89 x50 (x89 x40 x50)) x50))) (not (= x49 (x89 x49 (x89 x40 x49))))) (not (= x155 (x89 x155 (x89 x40 x155))))) (not (= x40 (x89 x40 (x89 x40 x40)))))))
(assert (let ((x124 (= (x89 x50 x50) x50)) (x88 (= x49 (x89 x49 x49))) (x73 (= x40 (x89 x40 x40))) (x145 (= (x89 x98 x98) x98)) (x79 (= x155 (x89 x155 x155)))) (let ((x2 (not x73)) (x81 (not x88)) (x25 (not x79)) (x96 (not x124)) (x125 (not x145))) (or (or (or (and (= x40 (x89 x40 x155)) x25) (or (and x81 (= x40 (x89 x40 x49))) (or (and x96 (= x40 (x89 x40 x50))) (and (= (x89 x40 x98) x40) x125)))) (and x2 x73)) (or (or (or (or (and (= (x89 x155 x49) x155) x81) (or (and x125 (= (x89 x155 x98) x155)) (and (= (x89 x155 x50) x155) x96))) (and x79 x25)) (and (= x155 (x89 x155 x40)) x2)) (or (or (or (or (and (= x98 (x89 x98 x155)) x25) (or (and (= (x89 x98 x49) x98) x81) (or (and x96 (= (x89 x98 x50) x98)) (and x125 x145)))) (and x2 (= x98 (x89 x98 x40)))) (or (or (and x25 (= x50 (x89 x50 x155))) (or (and x81 (= (x89 x50 x49) x50)) (or (and x124 x96) (and x125 (= x50 (x89 x50 x98)))))) (and x2 (= x50 (x89 x50 x40))))) (or (or (or (or (and (= (x89 x49 x98) x49) x125) (and (= (x89 x49 x50) x49) x96)) (and x81 x88)) (and (= x49 (x89 x49 x155)) x25)) (and x2 (= (x89 x49 x40) x49)))))))))
(assert (or (and (not (= (x89 x40 (x89 x40 x40)) x40)) (and (and (and (not (= x50 (x89 x40 (x89 x40 x50)))) (not (= (x89 x40 (x89 x40 x98)) x98))) (not (= (x89 x40 (x89 x40 x49)) x49))) (not (= (x89 x40 (x89 x40 x155)) x155)))) (or (or (and (not (= x40 (x89 x49 (x89 x49 x40)))) (and (and (and (not (= x98 (x89 x49 (x89 x49 x98)))) (not (= x50 (x89 x49 (x89 x49 x50))))) (not (= x49 (x89 x49 (x89 x49 x49))))) (not (= (x89 x49 (x89 x49 x155)) x155)))) (or (and (not (= (x89 x98 (x89 x98 x40)) x40)) (and (and (and (not (= x50 (x89 x98 (x89 x98 x50)))) (not (= (x89 x98 (x89 x98 x98)) x98))) (not (= (x89 x98 (x89 x98 x49)) x49))) (not (= x155 (x89 x98 (x89 x98 x155)))))) (and (and (and (not (= (x89 x50 (x89 x50 x49)) x49)) (and (not (= x98 (x89 x50 (x89 x50 x98)))) (not (= x50 (x89 x50 (x89 x50 x50)))))) (not (= (x89 x50 (x89 x50 x155)) x155))) (not (= (x89 x50 (x89 x50 x40)) x40))))) (and (and (not (= x155 (x89 x155 (x89 x155 x155)))) (and (not (= (x89 x155 (x89 x155 x49)) x49)) (and (not (= x98 (x89 x155 (x89 x155 x98)))) (not (= (x89 x155 (x89 x155 x50)) x50))))) (not (= x40 (x89 x155 (x89 x155 x40))))))))
(assert (or (and (and (and (not (= (x89 (x89 x49 x40) x40) x49)) (and (not (= x50 (x89 (x89 x50 x40) x40))) (not (= x98 (x89 (x89 x98 x40) x40))))) (not (= (x89 (x89 x155 x40) x40) x155))) (not (= (x89 (x89 x40 x40) x40) x40))) (or (or (or (and (not (= x40 (x89 (x89 x40 x50) x50))) (and (and (and (not (= x50 (x89 (x89 x50 x50) x50))) (not (= (x89 (x89 x98 x50) x50) x98))) (not (= (x89 (x89 x49 x50) x50) x49))) (not (= (x89 (x89 x155 x50) x50) x155)))) (and (not (= x40 (x89 (x89 x40 x98) x98))) (and (not (= x155 (x89 (x89 x155 x98) x98))) (and (and (not (= (x89 (x89 x50 x98) x98) x50)) (not (= x98 (x89 (x89 x98 x98) x98)))) (not (= x49 (x89 (x89 x49 x98) x98))))))) (and (not (= (x89 (x89 x40 x49) x49) x40)) (and (not (= x155 (x89 (x89 x155 x49) x49))) (and (not (= x49 (x89 (x89 x49 x49) x49))) (and (not (= x50 (x89 (x89 x50 x49) x49))) (not (= x98 (x89 (x89 x98 x49) x49)))))))) (and (and (not (= x155 (x89 (x89 x155 x155) x155))) (and (and (not (= x98 (x89 (x89 x98 x155) x155))) (not (= (x89 (x89 x50 x155) x155) x50))) (not (= x49 (x89 (x89 x49 x155) x155))))) (not (= (x89 (x89 x40 x155) x155) x40))))))
(assert (let ((x125 (= (x89 x155 x155) x155)) (x96 (= (x89 x98 x98) x98)) (x124 (= (x89 x50 x50) x50)) (x81 (= (x89 x40 x40) x40)) (x145 (= (x89 x49 x49) x49))) (and (and (and (and (and (and (or (not x145) x145) (and (or (not (= (x89 x49 x98) x98)) x145) (or (not (= x50 (x89 x49 x50))) x145))) (or (not (= x155 (x89 x49 x155))) x145)) (or (not (= x40 (x89 x49 x40))) x145)) (and (and (or (not (= x40 (x89 x98 x40))) x96) (and (and (or (not (= (x89 x98 x49) x49)) x96) (and (or (not x96) x96) (or x96 (not (= (x89 x98 x50) x50))))) (or x96 (not (= (x89 x98 x155) x155))))) (and (and (and (and (or (not (= x98 (x89 x50 x98))) x124) (or x124 (not x124))) (or (not (= x49 (x89 x50 x49))) x124)) (or (not (= x155 (x89 x50 x155))) x124)) (or x124 (not (= (x89 x50 x40) x40)))))) (and (and (or (not x125) x125) (and (and (or (not (= x98 (x89 x155 x98))) x125) (or (not (= x50 (x89 x155 x50))) x125)) (or x125 (not (= (x89 x155 x49) x49))))) (or x125 (not (= (x89 x155 x40) x40))))) (and (and (and (and (or x81 (not (= (x89 x40 x98) x98))) (or (not (= (x89 x40 x50) x50)) x81)) (or (not (= x49 (x89 x40 x49))) x81)) (or (not (= (x89 x40 x155) x155)) x81)) (or (not x81) x81)))))
(assert (or (and (and (not (= x40 (x89 x155 (x89 x40 x155)))) (and (and (not (= (x89 x98 (x89 x40 x98)) x40)) (not (= (x89 x50 (x89 x40 x50)) x40))) (not (= x40 (x89 x49 (x89 x40 x49)))))) (not (= x40 (x89 x40 (x89 x40 x40))))) (or (and (not (= (x89 x40 (x89 x155 x40)) x155)) (and (not (= x155 (x89 x155 (x89 x155 x155)))) (and (and (not (= (x89 x50 (x89 x155 x50)) x155)) (not (= x155 (x89 x98 (x89 x155 x98))))) (not (= (x89 x49 (x89 x155 x49)) x155))))) (or (and (not (= x49 (x89 x40 (x89 x49 x40)))) (and (not (= (x89 x155 (x89 x49 x155)) x49)) (and (and (not (= x49 (x89 x98 (x89 x49 x98)))) (not (= (x89 x50 (x89 x49 x50)) x49))) (not (= (x89 x49 (x89 x49 x49)) x49))))) (or (and (not (= x50 (x89 x40 (x89 x50 x40)))) (and (not (= x50 (x89 x155 (x89 x50 x155)))) (and (not (= (x89 x49 (x89 x50 x49)) x50)) (and (not (= x50 (x89 x98 (x89 x50 x98)))) (not (= (x89 x50 (x89 x50 x50)) x50)))))) (and (not (= x98 (x89 x40 (x89 x98 x40)))) (and (and (and (not (= x98 (x89 x98 (x89 x98 x98)))) (not (= x98 (x89 x50 (x89 x98 x50))))) (not (= (x89 x49 (x89 x98 x49)) x98))) (not (= (x89 x155 (x89 x98 x155)) x98)))))))))
(check-sat)
(exit)
